(set-logic HORN)
; KVARS

(declare-fun k_99 (Int Int Int Int Int Int Int Int Int) Bool)

(declare-fun k_97 (Int Int Int Int Int Int Int Int Int Int) Bool)

(declare-fun k_90 (Int Int Int Int Int Int) Bool)

(declare-fun k_87 (Int Int Int Int Int) Bool)

(declare-fun k_84 (Int Int Int Int Int Int) Bool)

(declare-fun k_82 (Int Int Int Int Int Int) Bool)

(declare-fun k_77 (Int Int Int Int Int Int Int Int) Bool)

(declare-fun k_74 (Int Int Int Int Int Int Int) Bool)

(declare-fun k_72 (Int Int Int Int Int Int Int Int) Bool)

(declare-fun k_68 (Int Int Int Int Int Int) Bool)

(declare-fun k_65 (Int Int Int Int Int) Bool)

(declare-fun k_62 (Int Int Int Int Int Int) Bool)

(declare-fun k_60 (Int Int Int Int Int Int) Bool)

(declare-fun k_57 (Int Int Int Int Int Int Int Int Int Int) Bool)

(declare-fun k_49 (Int Int Int Int Int Int) Bool)

(declare-fun k_46 (Int Int Int Int Int) Bool)

(declare-fun k_43 (Int Int Int Int Int Int) Bool)

(declare-fun k_41 (Int Int Int Int Int Int) Bool)

(declare-fun k_38 (Int Int Int Int Int Int) Bool)

(declare-fun k_36 (Int Int Int Int Int) Bool)

(declare-fun k_33 (Int Int Int Int Int Int) Bool)

(declare-fun k_31 (Int Int Int Int Int Int) Bool)

(declare-fun k_102 (Int Int Int Int Int Int Int Int Int Int) Bool)

; CONSTRAINTS

; cid = 31
(assert (forall ((EQ_6U Int) 
(GT_6W Int) (LT_6S Int) (VV_F31 Int) (cmp (Array Int Int)) (ds_ddx Int) 
(fix__91__93__35_6m Int) (len (Array Int Int)) (lq_anf__ddJ Int) 
(realWorld__0f Int)) 
 (=> (and (k_46 EQ_6U GT_6W LT_6S ds_ddx realWorld__0f) (and (k_46 EQ_6U GT_6W LT_6S lq_anf__ddJ realWorld__0f) (and (= (select cmp EQ_6U) EQ_6U) (and (= (select cmp GT_6W) GT_6W) (and (= (select cmp LT_6S) LT_6S) (and (>= (select len ds_ddx) 0) (and (>= (select len lq_anf__ddJ) 0) (and (= lq_anf__ddJ ds_ddx) (and (>= (select len lq_anf__ddJ) 0) (and (= lq_anf__ddJ fix__91__93__35_6m) (and (= (select len lq_anf__ddJ) 0) (and (>= (select len lq_anf__ddJ) 0) (and (= VV_F31 0) true))))))))))))) (k_49 EQ_6U GT_6W LT_6S VV_F31 ds_ddx realWorld__0f)))
)


; cid = 30
(assert (forall ((EQ_6U Int) (GT_6W Int) (LT_6S Int) 
(VV_F30 Int) (cmp (Array Int Int)) (ds_ddx Int) (ds_ddy Int) 
(fix__58__35_64 (Array Int (Array Int Int))) (len (Array Int Int)) 
(lq_anf__ddJ Int) (lq_anf__ddK Int) (lq_tmp_x34 Int) (realWorld__0f Int) 
(xs_adf Int)) 
 (=> (and (k_46 EQ_6U GT_6W LT_6S ds_ddx realWorld__0f) (and (k_41 EQ_6U GT_6W LT_6S ds_ddy lq_anf__ddJ realWorld__0f) (and (k_46 EQ_6U GT_6W LT_6S lq_anf__ddJ realWorld__0f) (and (= (select cmp EQ_6U) EQ_6U) (and (= (select cmp GT_6W) GT_6W) (and (= (select cmp LT_6S) LT_6S) (and (>= (select len ds_ddx) 0) (and (>= (select len lq_anf__ddJ) 0) (and (= lq_anf__ddJ ds_ddx) (and (>= (select len lq_anf__ddJ) 0) (and (= lq_anf__ddJ (select (select fix__58__35_64 ds_ddy) xs_adf)) (and (= (select len lq_anf__ddJ) (+ 1 (select len xs_adf))) (and (>= (select len lq_anf__ddJ) 0) (and (= lq_anf__ddK 1) (and (>= (select len xs_adf) 0) (and (k_43 EQ_6U GT_6W LT_6S VV_F30 lq_tmp_x34 realWorld__0f) true)))))))))))))))) (k_33 EQ_6U GT_6W LT_6S VV_F30 lq_tmp_x34 realWorld__0f)))
)


; cid = 29
(assert (forall ((EQ_6U Int) (GT_6W Int) (LT_6S Int) 
(VV_153 Int) (VV_F29 Int) (cmp (Array Int Int)) (ds_ddx Int) (ds_ddy Int) 
(fix__58__35_64 (Array Int (Array Int Int))) (len (Array Int Int)) 
(lq_anf__ddJ Int) (lq_anf__ddK Int) (realWorld__0f Int) 
(xs_adf Int)) 
 (=> (and (k_46 EQ_6U GT_6W LT_6S ds_ddx realWorld__0f) (and (k_41 EQ_6U GT_6W LT_6S ds_ddy lq_anf__ddJ realWorld__0f) (and (k_46 EQ_6U GT_6W LT_6S lq_anf__ddJ realWorld__0f) (and (= (select cmp EQ_6U) EQ_6U) (and (= (select cmp GT_6W) GT_6W) (and (= (select cmp LT_6S) LT_6S) (and (>= (select len VV_153) 0) (and (= VV_153 xs_adf) (and (>= (select len VV_153) 0) (and (>= (select len ds_ddx) 0) (and (>= (select len lq_anf__ddJ) 0) (and (= lq_anf__ddJ ds_ddx) (and (>= (select len lq_anf__ddJ) 0) (and (= lq_anf__ddJ (select (select fix__58__35_64 ds_ddy) xs_adf)) (and (= (select len lq_anf__ddJ) (+ 1 (select len xs_adf))) (and (>= (select len lq_anf__ddJ) 0) (and (= lq_anf__ddK 1) (and (>= (select len xs_adf) 0) (and (k_41 EQ_6U GT_6W LT_6S VV_F29 lq_anf__ddJ realWorld__0f) (and (k_43 EQ_6U GT_6W LT_6S VV_F29 ds_ddy realWorld__0f) true)))))))))))))))))))) (k_31 EQ_6U GT_6W LT_6S VV_F29 VV_153 realWorld__0f)))
)


; cid = 29
(assert (forall ((EQ_6U Int) (GT_6W Int) (LT_6S Int) 
(VV_153 Int) (VV_F29 Int) (cmp (Array Int Int)) (ds_ddx Int) (ds_ddy Int) 
(fix__58__35_64 (Array Int (Array Int Int))) (len (Array Int Int)) 
(lq_anf__ddJ Int) (lq_anf__ddK Int) (realWorld__0f Int) 
(xs_adf Int)) 
 (=> (and (k_46 EQ_6U GT_6W LT_6S ds_ddx realWorld__0f) (and (k_41 EQ_6U GT_6W LT_6S ds_ddy lq_anf__ddJ realWorld__0f) (and (k_46 EQ_6U GT_6W LT_6S lq_anf__ddJ realWorld__0f) (and (= (select cmp EQ_6U) EQ_6U) (and (= (select cmp GT_6W) GT_6W) (and (= (select cmp LT_6S) LT_6S) (and (>= (select len VV_153) 0) (and (= VV_153 xs_adf) (and (>= (select len VV_153) 0) (and (>= (select len ds_ddx) 0) (and (>= (select len lq_anf__ddJ) 0) (and (= lq_anf__ddJ ds_ddx) (and (>= (select len lq_anf__ddJ) 0) (and (= lq_anf__ddJ (select (select fix__58__35_64 ds_ddy) xs_adf)) (and (= (select len lq_anf__ddJ) (+ 1 (select len xs_adf))) (and (>= (select len lq_anf__ddJ) 0) (and (= lq_anf__ddK 1) (and (>= (select len xs_adf) 0) (and (k_41 EQ_6U GT_6W LT_6S VV_F29 lq_anf__ddJ realWorld__0f) (and (k_43 EQ_6U GT_6W LT_6S VV_F29 ds_ddy realWorld__0f) true)))))))))))))))))))) (k_57 EQ_6U GT_6W LT_6S VV_F29 ds_ddx ds_ddy lq_anf__ddJ lq_anf__ddK realWorld__0f xs_adf)))
)


; cid = 28
(assert (forall ((EQ_6U Int) (GT_6W Int) (LT_6S Int) 
(VV_F28 Int) (cmp (Array Int Int)) (ds_ddx Int) (ds_ddy Int) 
(fix__58__35_64 (Array Int (Array Int Int))) (len (Array Int Int)) 
(lq_anf__ddJ Int) (lq_anf__ddK Int) (realWorld__0f Int) 
(xs_adf Int)) 
 (=> (and (k_46 EQ_6U GT_6W LT_6S ds_ddx realWorld__0f) (and (k_41 EQ_6U GT_6W LT_6S ds_ddy lq_anf__ddJ realWorld__0f) (and (k_46 EQ_6U GT_6W LT_6S lq_anf__ddJ realWorld__0f) (and (= (select cmp EQ_6U) EQ_6U) (and (= (select cmp GT_6W) GT_6W) (and (= (select cmp LT_6S) LT_6S) (and (>= (select len ds_ddx) 0) (and (>= (select len lq_anf__ddJ) 0) (and (= lq_anf__ddJ ds_ddx) (and (>= (select len lq_anf__ddJ) 0) (and (= lq_anf__ddJ (select (select fix__58__35_64 ds_ddy) xs_adf)) (and (= (select len lq_anf__ddJ) (+ 1 (select len xs_adf))) (and (>= (select len lq_anf__ddJ) 0) (and (= lq_anf__ddK 1) (and (>= (select len xs_adf) 0) (and (>= (select len VV_F28) 0) (and (= VV_F28 xs_adf) true))))))))))))))))) (k_36 EQ_6U GT_6W LT_6S VV_F28 realWorld__0f)))
)


; cid = 27
(assert (forall ((EQ_6U Int) (GT_6W Int) (LT_6S Int) 
(VV_F27 Int) (cmp (Array Int Int)) (ds_ddx Int) (ds_ddy Int) 
(fix__58__35_64 (Array Int (Array Int Int))) (len (Array Int Int)) 
(lq_anf__ddJ Int) (lq_anf__ddK Int) (lq_anf__ddL Int) (realWorld__0f Int) 
(xs_adf Int)) 
 (=> (and (k_46 EQ_6U GT_6W LT_6S ds_ddx realWorld__0f) (and (k_41 EQ_6U GT_6W LT_6S ds_ddy lq_anf__ddJ realWorld__0f) (and (k_46 EQ_6U GT_6W LT_6S lq_anf__ddJ realWorld__0f) (and (k_38 EQ_6U GT_6W LT_6S lq_anf__ddL xs_adf realWorld__0f) (and (= (select cmp EQ_6U) EQ_6U) (and (= (select cmp GT_6W) GT_6W) (and (= (select cmp LT_6S) LT_6S) (and (>= (select len ds_ddx) 0) (and (>= (select len lq_anf__ddJ) 0) (and (= lq_anf__ddJ ds_ddx) (and (>= (select len lq_anf__ddJ) 0) (and (= lq_anf__ddJ (select (select fix__58__35_64 ds_ddy) xs_adf)) (and (= (select len lq_anf__ddJ) (+ 1 (select len xs_adf))) (and (>= (select len lq_anf__ddJ) 0) (and (= lq_anf__ddK 1) (and (>= (select len xs_adf) 0) (and (= VV_F27 (+ lq_anf__ddK lq_anf__ddL)) true))))))))))))))))) (k_49 EQ_6U GT_6W LT_6S VV_F27 ds_ddx realWorld__0f)))
)


; cid = 26
(assert (forall ((EQ_6U Int) (GT_6W Int) (LT_6S Int) 
(VV_F26 Int) (cmp (Array Int Int)) (ds_ddx Int) (len (Array Int Int)) 
(realWorld__0f Int)) 
 (=> (and (k_36 EQ_6U GT_6W LT_6S ds_ddx realWorld__0f) (and (= (select cmp EQ_6U) EQ_6U) (and (= (select cmp GT_6W) GT_6W) (and (= (select cmp LT_6S) LT_6S) (and (>= (select len ds_ddx) 0) (and (k_49 EQ_6U GT_6W LT_6S VV_F26 ds_ddx realWorld__0f) true)))))) (k_38 EQ_6U GT_6W LT_6S VV_F26 ds_ddx realWorld__0f)))
)


; cid = 25
(assert (forall ((EQ_6U Int) (GT_6W Int) (LT_6S Int) 
(VV_F25 Int) (cmp (Array Int Int)) (lq_tmp_x44 Int) 
(realWorld__0f Int)) 
 (=> (and (= (select cmp EQ_6U) EQ_6U) (and (= (select cmp GT_6W) GT_6W) (and (= (select cmp LT_6S) LT_6S) (and (k_33 EQ_6U GT_6W LT_6S VV_F25 lq_tmp_x44 realWorld__0f) true)))) (k_43 EQ_6U GT_6W LT_6S VV_F25 lq_tmp_x44 realWorld__0f)))
)


; cid = 24
(assert (forall ((EQ_6U Int) (GT_6W Int) (LT_6S Int) 
(VV_141 Int) (VV_F24 Int) (cmp (Array Int Int)) (len (Array Int Int)) 
(realWorld__0f Int)) 
 (=> (and (k_36 EQ_6U GT_6W LT_6S VV_141 realWorld__0f) (and (= (select cmp EQ_6U) EQ_6U) (and (= (select cmp GT_6W) GT_6W) (and (= (select cmp LT_6S) LT_6S) (and (>= (select len VV_141) 0) (and (k_31 EQ_6U GT_6W LT_6S VV_F24 VV_141 realWorld__0f) true)))))) (k_41 EQ_6U GT_6W LT_6S VV_F24 VV_141 realWorld__0f)))
)


; cid = 23
(assert (forall ((EQ_6U Int) (GT_6W Int) (LT_6S Int) 
(VV_F23 Int) (cmp (Array Int Int)) 
(realWorld__0f Int)) 
 (=> (and (= (select cmp EQ_6U) EQ_6U) (and (= (select cmp GT_6W) GT_6W) (and (= (select cmp LT_6S) LT_6S) (and (k_36 EQ_6U GT_6W LT_6S VV_F23 realWorld__0f) true)))) (k_46 EQ_6U GT_6W LT_6S VV_F23 realWorld__0f)))
)


; cid = 22
(assert (forall ((EQ_6U Int) (GT_6W Int) (LT_6S Int) 
(VV_F22 Int) (cmp (Array Int Int)) (ds_ddD Int) (fix__91__93__35_6m Int) 
(len (Array Int Int)) (lq_anf__ddM Int) (lq_tmp_x34 Int) (realWorld__0f Int) 
(zs_adg Int)) 
 (=> (and (k_74 EQ_6U GT_6W LT_6S ds_ddD lq_anf__ddM realWorld__0f zs_adg) (and (k_65 EQ_6U GT_6W LT_6S lq_anf__ddM realWorld__0f) (and (k_65 EQ_6U GT_6W LT_6S zs_adg realWorld__0f) (and (= (select cmp EQ_6U) EQ_6U) (and (= (select cmp GT_6W) GT_6W) (and (= (select cmp LT_6S) LT_6S) (and (>= (select len lq_anf__ddM) 0) (and (= lq_anf__ddM zs_adg) (and (>= (select len lq_anf__ddM) 0) (and (= lq_anf__ddM fix__91__93__35_6m) (and (= (select len lq_anf__ddM) 0) (and (>= (select len lq_anf__ddM) 0) (and (>= (select len zs_adg) 0) (and (k_62 EQ_6U GT_6W LT_6S VV_F22 lq_tmp_x34 realWorld__0f) true)))))))))))))) (k_33 EQ_6U GT_6W LT_6S VV_F22 lq_tmp_x34 realWorld__0f)))
)


; cid = 21
(assert (forall ((EQ_6U Int) (GT_6W Int) (LT_6S Int) 
(VV_138 Int) (VV_F21 Int) (cmp (Array Int Int)) (ds_ddD Int) 
(fix__91__93__35_6m Int) (len (Array Int Int)) (lq_anf__ddM Int) 
(realWorld__0f Int) 
(zs_adg Int)) 
 (=> (and (k_65 EQ_6U GT_6W LT_6S VV_138 realWorld__0f) (and (k_74 EQ_6U GT_6W LT_6S ds_ddD lq_anf__ddM realWorld__0f zs_adg) (and (k_65 EQ_6U GT_6W LT_6S lq_anf__ddM realWorld__0f) (and (k_65 EQ_6U GT_6W LT_6S zs_adg realWorld__0f) (and (= (select cmp EQ_6U) EQ_6U) (and (= (select cmp GT_6W) GT_6W) (and (= (select cmp LT_6S) LT_6S) (and (>= (select len VV_138) 0) (and (= VV_138 zs_adg) (and (>= (select len VV_138) 0) (and (>= (select len lq_anf__ddM) 0) (and (= lq_anf__ddM zs_adg) (and (>= (select len lq_anf__ddM) 0) (and (= lq_anf__ddM fix__91__93__35_6m) (and (= (select len lq_anf__ddM) 0) (and (>= (select len lq_anf__ddM) 0) (and (>= (select len zs_adg) 0) (and (k_60 EQ_6U GT_6W LT_6S VV_F21 VV_138 realWorld__0f) true)))))))))))))))))) (k_31 EQ_6U GT_6W LT_6S VV_F21 VV_138 realWorld__0f)))
)


; cid = 21
(assert (forall ((EQ_6U Int) (GT_6W Int) (LT_6S Int) 
(VV_138 Int) (VV_F21 Int) (cmp (Array Int Int)) (ds_ddD Int) 
(fix__91__93__35_6m Int) (len (Array Int Int)) (lq_anf__ddM Int) 
(realWorld__0f Int) 
(zs_adg Int)) 
 (=> (and (k_65 EQ_6U GT_6W LT_6S VV_138 realWorld__0f) (and (k_74 EQ_6U GT_6W LT_6S ds_ddD lq_anf__ddM realWorld__0f zs_adg) (and (k_65 EQ_6U GT_6W LT_6S lq_anf__ddM realWorld__0f) (and (k_65 EQ_6U GT_6W LT_6S zs_adg realWorld__0f) (and (= (select cmp EQ_6U) EQ_6U) (and (= (select cmp GT_6W) GT_6W) (and (= (select cmp LT_6S) LT_6S) (and (>= (select len VV_138) 0) (and (= VV_138 zs_adg) (and (>= (select len VV_138) 0) (and (>= (select len lq_anf__ddM) 0) (and (= lq_anf__ddM zs_adg) (and (>= (select len lq_anf__ddM) 0) (and (= lq_anf__ddM fix__91__93__35_6m) (and (= (select len lq_anf__ddM) 0) (and (>= (select len lq_anf__ddM) 0) (and (>= (select len zs_adg) 0) (and (k_60 EQ_6U GT_6W LT_6S VV_F21 VV_138 realWorld__0f) true)))))))))))))))))) (k_77 EQ_6U GT_6W LT_6S VV_F21 ds_ddD lq_anf__ddM realWorld__0f zs_adg)))
)


; cid = 20
(assert (forall ((EQ_6U Int) (GT_6W Int) (LT_6S Int) 
(VV_F20 Int) (cmp (Array Int Int)) (ds_ddD Int) (fix__91__93__35_6m Int) 
(len (Array Int Int)) (lq_anf__ddM Int) (realWorld__0f Int) 
(zs_adg Int)) 
 (=> (and (k_74 EQ_6U GT_6W LT_6S ds_ddD lq_anf__ddM realWorld__0f zs_adg) (and (k_65 EQ_6U GT_6W LT_6S lq_anf__ddM realWorld__0f) (and (k_65 EQ_6U GT_6W LT_6S zs_adg realWorld__0f) (and (= (select cmp EQ_6U) EQ_6U) (and (= (select cmp GT_6W) GT_6W) (and (= (select cmp LT_6S) LT_6S) (and (>= (select len lq_anf__ddM) 0) (and (= lq_anf__ddM zs_adg) (and (>= (select len lq_anf__ddM) 0) (and (= lq_anf__ddM fix__91__93__35_6m) (and (= (select len lq_anf__ddM) 0) (and (>= (select len lq_anf__ddM) 0) (and (>= (select len zs_adg) 0) (and (k_65 EQ_6U GT_6W LT_6S VV_F20 realWorld__0f) (and (>= (select len VV_F20) 0) (and (= VV_F20 zs_adg) true)))))))))))))))) (k_36 EQ_6U GT_6W LT_6S VV_F20 realWorld__0f)))
)


; cid = 18
(assert (forall ((EQ_6U Int) (GT_6W Int) (LT_6S Int) 
(VV_F18 Int) (cmp (Array Int Int)) (fix__91__93__35_6m Int) 
(len (Array Int Int)) (lq_anf__ddM Int) (realWorld__0f Int) 
(zs_adg Int)) 
 (=> (and (k_65 EQ_6U GT_6W LT_6S lq_anf__ddM realWorld__0f) (and (k_65 EQ_6U GT_6W LT_6S zs_adg realWorld__0f) (and (= (select cmp EQ_6U) EQ_6U) (and (= (select cmp GT_6W) GT_6W) (and (= (select cmp LT_6S) LT_6S) (and (>= (select len lq_anf__ddM) 0) (and (= lq_anf__ddM zs_adg) (and (>= (select len lq_anf__ddM) 0) (and (= lq_anf__ddM fix__91__93__35_6m) (and (= (select len lq_anf__ddM) 0) (and (>= (select len lq_anf__ddM) 0) (and (>= (select len zs_adg) 0) (and (= VV_F18 realWorld__0f) true))))))))))))) (k_74 EQ_6U GT_6W LT_6S VV_F18 lq_anf__ddM realWorld__0f zs_adg)))
)


; cid = 14
(assert (forall ((EQ_6U Int) (GT_6W Int) (LT_6S Int) 
(VV_F14 Int) (cmp (Array Int Int)) (lq_tmp_x63 Int) 
(realWorld__0f Int)) 
 (=> (and (= (select cmp EQ_6U) EQ_6U) (and (= (select cmp GT_6W) GT_6W) (and (= (select cmp LT_6S) LT_6S) true))) (k_62 EQ_6U GT_6W LT_6S VV_F14 lq_tmp_x63 realWorld__0f)))
)


; cid = 13
(assert (forall ((EQ_6U Int) (GT_6W Int) (LT_6S Int) 
(VV_122 Int) (VV_F13 Int) (cmp (Array Int Int)) (len (Array Int Int)) 
(realWorld__0f Int)) 
 (=> (and (= (select cmp EQ_6U) EQ_6U) (and (= (select cmp GT_6W) GT_6W) (and (= (select cmp LT_6S) LT_6S) (and (>= (select len VV_122) 0) true)))) (k_60 EQ_6U GT_6W LT_6S VV_F13 VV_122 realWorld__0f)))
)


; cid = 12
(assert (forall ((EQ_6U Int) (GT_6W Int) (LT_6S Int) 
(VV_F12 Int) (cmp (Array Int Int)) 
(realWorld__0f Int)) 
 (=> (and (= (select cmp EQ_6U) EQ_6U) (and (= (select cmp GT_6W) GT_6W) (and (= (select cmp LT_6S) LT_6S) true))) (k_65 EQ_6U GT_6W LT_6S VV_F12 realWorld__0f)))
)


; cid = 11
(assert (forall ((EQ_6U Int) (GT_6W Int) (LT_6S Int) 
(VV_F11 Int) (cmp (Array Int Int)) (fix__91__93__35_6m Int) 
(len (Array Int Int)) (lq_anf__ddN Int) (realWorld__0f Int) 
(zs_adj Int)) 
 (=> (and (k_87 EQ_6U GT_6W LT_6S lq_anf__ddN realWorld__0f) (and (k_87 EQ_6U GT_6W LT_6S zs_adj realWorld__0f) (and (= (select cmp EQ_6U) EQ_6U) (and (= (select cmp GT_6W) GT_6W) (and (= (select cmp LT_6S) LT_6S) (and (>= (select len lq_anf__ddN) 0) (and (= lq_anf__ddN zs_adj) (and (>= (select len lq_anf__ddN) 0) (and (= lq_anf__ddN fix__91__93__35_6m) (and (= (select len lq_anf__ddN) 0) (and (>= (select len lq_anf__ddN) 0) (and (>= (select len zs_adj) 0) (and (= VV_F11 1) true))))))))))))) (k_90 EQ_6U GT_6W LT_6S VV_F11 realWorld__0f zs_adj)))
)


; cid = 10
(assert (forall ((EQ_6U Int) (GT_6W Int) (LT_6S Int) 
(VV_F10 Int) (cmp (Array Int Int)) (ds_ddH Int) 
(fix__58__35_64 (Array Int (Array Int Int))) (len (Array Int Int)) 
(lq_anf__ddN Int) (lq_anf__ddO Int) (lq_anf__ddP Int) (lq_tmp_x34 Int) 
(realWorld__0f Int) 
(zs_adj Int)) 
 (=> (and (k_99 EQ_6U GT_6W LT_6S ds_ddH lq_anf__ddN lq_anf__ddO lq_anf__ddP realWorld__0f zs_adj) (and (k_87 EQ_6U GT_6W LT_6S lq_anf__ddN realWorld__0f) (and (k_82 EQ_6U GT_6W LT_6S lq_anf__ddO lq_anf__ddN realWorld__0f) (and (k_87 EQ_6U GT_6W LT_6S zs_adj realWorld__0f) (and (= (select cmp EQ_6U) EQ_6U) (and (= (select cmp GT_6W) GT_6W) (and (= (select cmp LT_6S) LT_6S) (and (>= (select len lq_anf__ddN) 0) (and (= lq_anf__ddN zs_adj) (and (>= (select len lq_anf__ddN) 0) (and (= lq_anf__ddN (select (select fix__58__35_64 lq_anf__ddO) lq_anf__ddP)) (and (= (select len lq_anf__ddN) (+ 1 (select len lq_anf__ddP))) (and (>= (select len lq_anf__ddN) 0) (and (>= (select len lq_anf__ddP) 0) (and (>= (select len zs_adj) 0) (and (k_84 EQ_6U GT_6W LT_6S VV_F10 lq_tmp_x34 realWorld__0f) true)))))))))))))))) (k_33 EQ_6U GT_6W LT_6S VV_F10 lq_tmp_x34 realWorld__0f)))
)


; cid = 9
(assert (forall ((EQ_6U Int) (GT_6W Int) (LT_6S Int) (VV_115 Int) 
(VV_F9 Int) (cmp (Array Int Int)) (ds_ddH Int) 
(fix__58__35_64 (Array Int (Array Int Int))) (len (Array Int Int)) 
(lq_anf__ddN Int) (lq_anf__ddO Int) (lq_anf__ddP Int) (realWorld__0f Int) 
(zs_adj Int)) 
 (=> (and (k_87 EQ_6U GT_6W LT_6S VV_115 realWorld__0f) (and (k_99 EQ_6U GT_6W LT_6S ds_ddH lq_anf__ddN lq_anf__ddO lq_anf__ddP realWorld__0f zs_adj) (and (k_87 EQ_6U GT_6W LT_6S lq_anf__ddN realWorld__0f) (and (k_82 EQ_6U GT_6W LT_6S lq_anf__ddO lq_anf__ddN realWorld__0f) (and (k_87 EQ_6U GT_6W LT_6S zs_adj realWorld__0f) (and (= (select cmp EQ_6U) EQ_6U) (and (= (select cmp GT_6W) GT_6W) (and (= (select cmp LT_6S) LT_6S) (and (>= (select len VV_115) 0) (and (= VV_115 zs_adj) (and (>= (select len VV_115) 0) (and (>= (select len lq_anf__ddN) 0) (and (= lq_anf__ddN zs_adj) (and (>= (select len lq_anf__ddN) 0) (and (= lq_anf__ddN (select (select fix__58__35_64 lq_anf__ddO) lq_anf__ddP)) (and (= (select len lq_anf__ddN) (+ 1 (select len lq_anf__ddP))) (and (>= (select len lq_anf__ddN) 0) (and (>= (select len lq_anf__ddP) 0) (and (>= (select len zs_adj) 0) (and (k_82 EQ_6U GT_6W LT_6S VV_F9 VV_115 realWorld__0f) true)))))))))))))))))))) (k_31 EQ_6U GT_6W LT_6S VV_F9 VV_115 realWorld__0f)))
)


; cid = 9
(assert (forall ((EQ_6U Int) (GT_6W Int) (LT_6S Int) (VV_115 Int) 
(VV_F9 Int) (cmp (Array Int Int)) (ds_ddH Int) 
(fix__58__35_64 (Array Int (Array Int Int))) (len (Array Int Int)) 
(lq_anf__ddN Int) (lq_anf__ddO Int) (lq_anf__ddP Int) (realWorld__0f Int) 
(zs_adj Int)) 
 (=> (and (k_87 EQ_6U GT_6W LT_6S VV_115 realWorld__0f) (and (k_99 EQ_6U GT_6W LT_6S ds_ddH lq_anf__ddN lq_anf__ddO lq_anf__ddP realWorld__0f zs_adj) (and (k_87 EQ_6U GT_6W LT_6S lq_anf__ddN realWorld__0f) (and (k_82 EQ_6U GT_6W LT_6S lq_anf__ddO lq_anf__ddN realWorld__0f) (and (k_87 EQ_6U GT_6W LT_6S zs_adj realWorld__0f) (and (= (select cmp EQ_6U) EQ_6U) (and (= (select cmp GT_6W) GT_6W) (and (= (select cmp LT_6S) LT_6S) (and (>= (select len VV_115) 0) (and (= VV_115 zs_adj) (and (>= (select len VV_115) 0) (and (>= (select len lq_anf__ddN) 0) (and (= lq_anf__ddN zs_adj) (and (>= (select len lq_anf__ddN) 0) (and (= lq_anf__ddN (select (select fix__58__35_64 lq_anf__ddO) lq_anf__ddP)) (and (= (select len lq_anf__ddN) (+ 1 (select len lq_anf__ddP))) (and (>= (select len lq_anf__ddN) 0) (and (>= (select len lq_anf__ddP) 0) (and (>= (select len zs_adj) 0) (and (k_82 EQ_6U GT_6W LT_6S VV_F9 VV_115 realWorld__0f) true)))))))))))))))))))) (k_102 EQ_6U GT_6W LT_6S VV_F9 ds_ddH lq_anf__ddN lq_anf__ddO lq_anf__ddP realWorld__0f zs_adj)))
)


; cid = 8
(assert (forall ((EQ_6U Int) (GT_6W Int) (LT_6S Int) (VV_F8 Int) 
(cmp (Array Int Int)) (ds_ddH Int) 
(fix__58__35_64 (Array Int (Array Int Int))) (len (Array Int Int)) 
(lq_anf__ddN Int) (lq_anf__ddO Int) (lq_anf__ddP Int) (realWorld__0f Int) 
(zs_adj Int)) 
 (=> (and (k_99 EQ_6U GT_6W LT_6S ds_ddH lq_anf__ddN lq_anf__ddO lq_anf__ddP realWorld__0f zs_adj) (and (k_87 EQ_6U GT_6W LT_6S lq_anf__ddN realWorld__0f) (and (k_82 EQ_6U GT_6W LT_6S lq_anf__ddO lq_anf__ddN realWorld__0f) (and (k_87 EQ_6U GT_6W LT_6S zs_adj realWorld__0f) (and (= (select cmp EQ_6U) EQ_6U) (and (= (select cmp GT_6W) GT_6W) (and (= (select cmp LT_6S) LT_6S) (and (>= (select len lq_anf__ddN) 0) (and (= lq_anf__ddN zs_adj) (and (>= (select len lq_anf__ddN) 0) (and (= lq_anf__ddN (select (select fix__58__35_64 lq_anf__ddO) lq_anf__ddP)) (and (= (select len lq_anf__ddN) (+ 1 (select len lq_anf__ddP))) (and (>= (select len lq_anf__ddN) 0) (and (>= (select len lq_anf__ddP) 0) (and (>= (select len zs_adj) 0) (and (k_87 EQ_6U GT_6W LT_6S VV_F8 realWorld__0f) (and (>= (select len VV_F8) 0) (and (= VV_F8 zs_adj) true)))))))))))))))))) (k_36 EQ_6U GT_6W LT_6S VV_F8 realWorld__0f)))
)


; cid = 6
(assert (forall ((EQ_6U Int) (GT_6W Int) (LT_6S Int) (VV_F6 Int) 
(cmp (Array Int Int)) (fix__58__35_64 (Array Int (Array Int Int))) 
(len (Array Int Int)) (lq_anf__ddN Int) (lq_anf__ddO Int) (lq_anf__ddP Int) 
(realWorld__0f Int) 
(zs_adj Int)) 
 (=> (and (k_87 EQ_6U GT_6W LT_6S lq_anf__ddN realWorld__0f) (and (k_82 EQ_6U GT_6W LT_6S lq_anf__ddO lq_anf__ddN realWorld__0f) (and (k_87 EQ_6U GT_6W LT_6S zs_adj realWorld__0f) (and (= (select cmp EQ_6U) EQ_6U) (and (= (select cmp GT_6W) GT_6W) (and (= (select cmp LT_6S) LT_6S) (and (>= (select len lq_anf__ddN) 0) (and (= lq_anf__ddN zs_adj) (and (>= (select len lq_anf__ddN) 0) (and (= lq_anf__ddN (select (select fix__58__35_64 lq_anf__ddO) lq_anf__ddP)) (and (= (select len lq_anf__ddN) (+ 1 (select len lq_anf__ddP))) (and (>= (select len lq_anf__ddN) 0) (and (>= (select len lq_anf__ddP) 0) (and (>= (select len zs_adj) 0) (and (= VV_F6 realWorld__0f) true))))))))))))))) (k_99 EQ_6U GT_6W LT_6S VV_F6 lq_anf__ddN lq_anf__ddO lq_anf__ddP realWorld__0f zs_adj)))
)


; cid = 5
(assert (forall ((EQ_6U Int) (GT_6W Int) (LT_6S Int) (VV_F5 Int) 
(cmp (Array Int Int)) (fix__58__35_64 (Array Int (Array Int Int))) 
(len (Array Int Int)) (lq_anf__ddN Int) (lq_anf__ddO Int) (lq_anf__ddP Int) 
(realWorld__0f Int) 
(zs_adj Int)) 
 (=> (and (k_87 EQ_6U GT_6W LT_6S lq_anf__ddN realWorld__0f) (and (k_82 EQ_6U GT_6W LT_6S lq_anf__ddO lq_anf__ddN realWorld__0f) (and (k_87 EQ_6U GT_6W LT_6S zs_adj realWorld__0f) (and (= (select cmp EQ_6U) EQ_6U) (and (= (select cmp GT_6W) GT_6W) (and (= (select cmp LT_6S) LT_6S) (and (>= (select len lq_anf__ddN) 0) (and (= lq_anf__ddN zs_adj) (and (>= (select len lq_anf__ddN) 0) (and (= lq_anf__ddN (select (select fix__58__35_64 lq_anf__ddO) lq_anf__ddP)) (and (= (select len lq_anf__ddN) (+ 1 (select len lq_anf__ddP))) (and (>= (select len lq_anf__ddN) 0) (and (>= (select len lq_anf__ddP) 0) (and (>= (select len zs_adj) 0) (and (k_38 EQ_6U GT_6W LT_6S VV_F5 zs_adj realWorld__0f) true))))))))))))))) (k_90 EQ_6U GT_6W LT_6S VV_F5 realWorld__0f zs_adj)))
)


; cid = 4
(assert (forall ((EQ_6U Int) (GT_6W Int) (LT_6S Int) (VV_F4 Int) 
(cmp (Array Int Int)) (dummy.pos.meas7.hs.20.12 Int) (len (Array Int Int)) 
(realWorld__0f Int)) 
 (=> (and (not (> VV_F4 0)) (and (= (select cmp EQ_6U) EQ_6U) (and (= (select cmp GT_6W) GT_6W) (and (= (select cmp LT_6S) LT_6S) (and (>= (select len dummy.pos.meas7.hs.20.12) 0) (and (k_90 EQ_6U GT_6W LT_6S VV_F4 realWorld__0f dummy.pos.meas7.hs.20.12) true)))))) false))
)


; cid = 3
(assert (forall ((EQ_6U Int) (GT_6W Int) (LT_6S Int) (VV_F3 Int) 
(cmp (Array Int Int)) (lq_tmp_x85 Int) 
(realWorld__0f Int)) 
 (=> (and (= (select cmp EQ_6U) EQ_6U) (and (= (select cmp GT_6W) GT_6W) (and (= (select cmp LT_6S) LT_6S) true))) (k_84 EQ_6U GT_6W LT_6S VV_F3 lq_tmp_x85 realWorld__0f)))
)


; cid = 2
(assert (forall ((EQ_6U Int) (GT_6W Int) (LT_6S Int) (VV_103 Int) 
(VV_F2 Int) (cmp (Array Int Int)) (len (Array Int Int)) 
(realWorld__0f Int)) 
 (=> (and (= (select cmp EQ_6U) EQ_6U) (and (= (select cmp GT_6W) GT_6W) (and (= (select cmp LT_6S) LT_6S) (and (>= (select len VV_103) 0) true)))) (k_82 EQ_6U GT_6W LT_6S VV_F2 VV_103 realWorld__0f)))
)


; cid = 1
(assert (forall ((EQ_6U Int) (GT_6W Int) (LT_6S Int) (VV_F1 Int) 
(cmp (Array Int Int)) 
(realWorld__0f Int)) 
 (=> (and (= (select cmp EQ_6U) EQ_6U) (and (= (select cmp GT_6W) GT_6W) (and (= (select cmp LT_6S) LT_6S) true))) (k_87 EQ_6U GT_6W LT_6S VV_F1 realWorld__0f)))
)
